\ SCIP STATISTICS
\   Problem name     : CapacitatedFacilityLocation-20-10
\   Variables        : 210 (210 binary, 0 integer, 0 implicit integer, 0 continuous)
\   Constraints      : 231
Minimize
 Obj: +943.296408239611 x0 +1150.97661845922 x1 +1298 x2 +1111.37435819757 x3 +1275.86928461161 x4 +594.024770079306 x5
      +1247.57075261806 x6 +1267.2180531939 x7 +1176 x8 +486 x9 +34.054531969977 x10 +98.1770070806215 x11
      +107.396225857988 x12 +100.5834680606 x13 +65.9029662922186 x14 +121.877877269322 x15 +143.74133999689 x16
      +84.1787740610209 x17 +112.271598813276 x18 +96.9745749950978 x19 +146.84633462772 x20 +288.686903551766 x21
      +205.955796132484 x22 +102.219716441486 x23 +272.227636879284 x24 +295.811337714241 x25 +106.306788426692 x26
      +93.4811770307819 x27 +238.631644884285 x28 +137.11115721218 x29 +8.00158431032789 x30 +38.5008388172201 x31
      +26.7964480660995 x32 +29.9613396062484 x33 +36.4152768123161 x34 +42.3032008306922 x35 +44.0822952822139 x36
      +13.9650648949211 x37 +32.0013033279218 x38 +17.6571469221352 x39 +28.5399458523506 x40 +91.4891297567918 x41
      +96.47219438392 x42 +54.7485713128927 x43 +56.6804504664471 x44 +109.415255294998 x45 +83.3452907274357 x46
      +62.7801365646648 x47 +101.917462033633 x48 +81.7230034607987 x49 +76.8622589463704 x50 +154.040751757685 x51
      +125.016054498243 x52 +34.4748833045813 x53 +133.765315543146 x54 +162.489170740344 x55 +19.5296134772428 x56
      +63.6497495637254 x57 +139.325630974431 x58 +92.1583574471727 x59 +101.090899613346 x60 +141.400359555383 x61
      +93.2135540338532 x62 +97.5297716342276 x63 +150.017030137967 x64 +136.456012646314 x65 +100.825715134249 x66
      +74.289667208172 x67 +107.358551351184 x68 +72.4724639493004 x69 +8.88414322544781 x70 +30.3051413885519 x71
      +31.0103128927022 x72 +15.7170282356115 x73 +19.4895596619021 x74 +35.8079991583477 x75 +24.7191262755308 x76
      +19.1608381344796 x77 +33.0009572131611 x78 +25.7291870996773 x79 +145.390925479564 x80 +224.227997972696 x81
      +151.128067214833 x82 +129.923671492602 x83 +229.071369429727 x84 +220.731880126905 x85 +132.012156098822 x86
      +101.787925081149 x87 +174.941898950693 x88 +110.012524694039 x89 +77.2488428944577 x90 +163.736428786686 x91
      +136.87695550636 x92 +26.3275163572509 x93 +137.594815085506 x94 +174.908459021193 x95 +10.4149549145161 x96
      +68.7726322711275 x97 +151.655774422169 x98 +101.853719366175 x99 +108.403515595155 x100 +200.895503264282 x101
      +140.388160065653 x102 +82.1572834143374 x103 +193.498078233954 x104 +203.825156928355 x105 +84.375103467026 x106
      +69.3319817440615 x107 +163.178612667076 x108 +94.0641804936529 x109 +99.3428549340453 x110 +92.9326937053126 x111
      +25.9375470348356 x112 +142.101737551026 x113 +132.260257962205 x114 +76.5549908297418 x115 +169.449216945643 x116
      +87.505578088965 x117 +36.1100328319409 x118 +52.5144345934746 x119 +47.2875998003436 x120 +37.152012557045 x121
      +9.37313711628352 x122 +71.2144259936024 x123 +58.6579350926827 x124 +28.6125179114666 x125 +85.8495387376183 x126
      +45.2686914713984 x127 +8.82104371549269 x128 +28.7655478178223 x129 +137.017326677764 x130 +32.8197725480805 x131
      +86.807507339051 x132 +227.915028949023 x133 +114.736069736068 x134 +34.6090052682862 x135 +281.079574727732 x136
      +167.165153491409 x137 +61.2972343486533 x138 +135.600740268685 x139 +19.0126486471656 x140 +32.079918112215 x141
      +12.4903731825424 x142 +36.9843265314303 x143 +38.2978730418357 x144 +31.9244237520817 x145 +48.7929898681175 x146
      +16.9015322991508 x147 +18.8083661914189 x148 +7.88346907508867 x149 +138.872906879466 x150 +204.735275517574 x151
      +111.656270506876 x152 +154.352747503252 x153 +226.697696149667 x154 +195.003056055364 x155 +175.373268693322 x156
      +90.4702072032128 x157 +139.148192213015 x158 +73.6653169415374 x159 +52.2625291220448 x160 +100.289276181963 x161
      +91.6736484552475 x162 +23.7555901927133 x163 +79.4049238791929 x164 +108.993459036255 x165 +13.4305307389887 x166
      +54.1773949711762 x167 +98.8502316515463 x168 +73.375887735769 x169 +84.4997098121372 x170 +150.730113160275 x171
      +62.1488848746342 x172 +134.919912622746 x173 +171.872347988067 x174 +147.127273347952 x175 +174.55122927695 x176
      +51.8213845838461 x177 +91.6137116446943 x178 +1.50987814152541 x179 +127.163797453867 x180 +68.8330132632736 x181
      +45.8289564005178 x182 +209.729003435898 x183 +137.898286785831 x184 +50.4976192012809 x185 +258.352020664042 x186
      +140.564903208959 x187 +19.5967118728307 x188 +100.865442454902 x189 +216.177320319718 x190 +300.096559615185 x191
      +192.211794408255 x192 +214.421901727221 x193 +322.433223574924 x194 +287.95140879548 x195 +225.381667200745 x196
      +157.292352333316 x197 +223.255664748429 x198 +148.745214658244 x199 +41.1695155585751 x200 +56.179243042915 x201
      +53.8463519838489 x202 +99.0096171557001 x203 +62.165454961089 x204 +67.8017366970323 x205 +132.85637024234 x206
      +65.3470878907828 x207 +55.7098024379712 x208 +58.3747904173592 x209
Subject to
 c0: +1 x10 +1 x11 +1 x12 +1 x13 +1 x14 +1 x15 +1 x16 +1 x17 +1 x18 +1 x19 >= +1
 c1: +1 x20 +1 x21 +1 x22 +1 x23 +1 x24 +1 x25 +1 x26 +1 x27 +1 x28 +1 x29 >= +1
 c2: +1 x30 +1 x31 +1 x32 +1 x33 +1 x34 +1 x35 +1 x36 +1 x37 +1 x38 +1 x39 >= +1
 c3: +1 x40 +1 x41 +1 x42 +1 x43 +1 x44 +1 x45 +1 x46 +1 x47 +1 x48 +1 x49 >= +1
 c4: +1 x50 +1 x51 +1 x52 +1 x53 +1 x54 +1 x55 +1 x56 +1 x57 +1 x58 +1 x59 >= +1
 c5: +1 x60 +1 x61 +1 x62 +1 x63 +1 x64 +1 x65 +1 x66 +1 x67 +1 x68 +1 x69 >= +1
 c6: +1 x70 +1 x71 +1 x72 +1 x73 +1 x74 +1 x75 +1 x76 +1 x77 +1 x78 +1 x79 >= +1
 c7: +1 x80 +1 x81 +1 x82 +1 x83 +1 x84 +1 x85 +1 x86 +1 x87 +1 x88 +1 x89 >= +1
 c8: +1 x90 +1 x91 +1 x92 +1 x93 +1 x94 +1 x95 +1 x96 +1 x97 +1 x98 +1 x99 >= +1
 c9: +1 x100 +1 x101 +1 x102 +1 x103 +1 x104 +1 x105 +1 x106 +1 x107 +1 x108 +1 x109 >= +1
 c10: +1 x110 +1 x111 +1 x112 +1 x113 +1 x114 +1 x115 +1 x116 +1 x117 +1 x118 +1 x119 >= +1
 c11: +1 x120 +1 x121 +1 x122 +1 x123 +1 x124 +1 x125 +1 x126 +1 x127 +1 x128 +1 x129 >= +1
 c12: +1 x130 +1 x131 +1 x132 +1 x133 +1 x134 +1 x135 +1 x136 +1 x137 +1 x138 +1 x139 >= +1
 c13: +1 x140 +1 x141 +1 x142 +1 x143 +1 x144 +1 x145 +1 x146 +1 x147 +1 x148 +1 x149 >= +1
 c14: +1 x150 +1 x151 +1 x152 +1 x153 +1 x154 +1 x155 +1 x156 +1 x157 +1 x158 +1 x159 >= +1
 c15: +1 x160 +1 x161 +1 x162 +1 x163 +1 x164 +1 x165 +1 x166 +1 x167 +1 x168 +1 x169 >= +1
 c16: +1 x170 +1 x171 +1 x172 +1 x173 +1 x174 +1 x175 +1 x176 +1 x177 +1 x178 +1 x179 >= +1
 c17: +1 x180 +1 x181 +1 x182 +1 x183 +1 x184 +1 x185 +1 x186 +1 x187 +1 x188 +1 x189 >= +1
 c18: +1 x190 +1 x191 +1 x192 +1 x193 +1 x194 +1 x195 +1 x196 +1 x197 +1 x198 +1 x199 >= +1
 c19: +1 x200 +1 x201 +1 x202 +1 x203 +1 x204 +1 x205 +1 x206 +1 x207 +1 x208 +1 x209 >= +1
 c20: +27 x10 +34 x20 +9 x30 +19 x40 +17 x50 +14 x60 +6 x70 +23 x80 +19 x90 +23 x100 +20 x110 +10 x120
  +33 x130 +8 x140 +27 x150 +11 x160 +30 x170 +31 x180 +31 x190 +21 x200 -150 x0 <= +0
 c21: +27 x11 +34 x21 +9 x31 +19 x41 +17 x51 +14 x61 +6 x71 +23 x81 +19 x91 +23 x101 +20 x111 +10 x121
  +33 x131 +8 x141 +27 x151 +11 x161 +30 x171 +31 x181 +31 x191 +21 x201 -222 x1 <= +0
 c22: +27 x12 +34 x22 +9 x32 +19 x42 +17 x52 +14 x62 +6 x72 +23 x82 +19 x92 +23 x102 +20 x112 +10 x122
  +33 x132 +8 x142 +27 x152 +11 x162 +30 x172 +31 x182 +31 x192 +21 x202 -296 x2 <= +0
 c23: +27 x13 +34 x23 +9 x33 +19 x43 +17 x53 +14 x63 +6 x73 +23 x83 +19 x93 +23 x103 +20 x113 +10 x123
  +33 x133 +8 x143 +27 x153 +11 x163 +30 x173 +31 x183 +31 x193 +21 x203 -199 x3 <= +0
 c24: +27 x14 +34 x24 +9 x34 +19 x44 +17 x54 +14 x64 +6 x74 +23 x84 +19 x94 +23 x104 +20 x114 +10 x124
  +33 x134 +8 x144 +27 x154 +11 x164 +30 x174 +31 x184 +31 x194 +21 x204 -312 x4 <= +0
 c25: +27 x15 +34 x25 +9 x35 +19 x45 +17 x55 +14 x65 +6 x75 +23 x85 +19 x95 +23 x105 +20 x115 +10 x125
  +33 x135 +8 x145 +27 x155 +11 x165 +30 x175 +31 x185 +31 x195 +21 x205 -57 x5 <= +0
 c26: +27 x16 +34 x26 +9 x36 +19 x46 +17 x56 +14 x66 +6 x76 +23 x86 +19 x96 +23 x106 +20 x116 +10 x126
  +33 x136 +8 x146 +27 x156 +11 x166 +30 x176 +31 x186 +31 x196 +21 x206 -265 x6 <= +0
 c27: +27 x17 +34 x27 +9 x37 +19 x47 +17 x57 +14 x67 +6 x77 +23 x87 +19 x97 +23 x107 +20 x117 +10 x127
  +33 x137 +8 x147 +27 x157 +11 x167 +30 x177 +31 x187 +31 x197 +21 x207 -283 x7 <= +0
 c28: +27 x18 +34 x28 +9 x38 +19 x48 +17 x58 +14 x68 +6 x78 +23 x88 +19 x98 +23 x108 +20 x118 +10 x128
  +33 x138 +8 x148 +27 x158 +11 x168 +30 x178 +31 x188 +31 x198 +21 x208 -248 x8 <= +0
 c29: +27 x19 +34 x29 +9 x39 +19 x49 +17 x59 +14 x69 +6 x79 +23 x89 +19 x99 +23 x109 +20 x119 +10 x129
  +33 x139 +8 x149 +27 x159 +11 x169 +30 x179 +31 x189 +31 x199 +21 x209 -33 x9 <= +0
 c30: +150 x0 +222 x1 +296 x2 +199 x3 +312 x4 +57 x5 +265 x6 +283 x7 +248 x8 +33 x9 >= +413
 c31: +1 x10 -1 x0 <= +0
 c32: +1 x11 -1 x1 <= +0
 c33: +1 x12 -1 x2 <= +0
 c34: +1 x13 -1 x3 <= +0
 c35: +1 x14 -1 x4 <= +0
 c36: +1 x15 -1 x5 <= +0
 c37: +1 x16 -1 x6 <= +0
 c38: +1 x17 -1 x7 <= +0
 c39: +1 x18 -1 x8 <= +0
 c40: +1 x19 -1 x9 <= +0
 c41: +1 x20 -1 x0 <= +0
 c42: +1 x21 -1 x1 <= +0
 c43: +1 x22 -1 x2 <= +0
 c44: +1 x23 -1 x3 <= +0
 c45: +1 x24 -1 x4 <= +0
 c46: +1 x25 -1 x5 <= +0
 c47: +1 x26 -1 x6 <= +0
 c48: +1 x27 -1 x7 <= +0
 c49: +1 x28 -1 x8 <= +0
 c50: +1 x29 -1 x9 <= +0
 c51: +1 x30 -1 x0 <= +0
 c52: +1 x31 -1 x1 <= +0
 c53: +1 x32 -1 x2 <= +0
 c54: +1 x33 -1 x3 <= +0
 c55: +1 x34 -1 x4 <= +0
 c56: +1 x35 -1 x5 <= +0
 c57: +1 x36 -1 x6 <= +0
 c58: +1 x37 -1 x7 <= +0
 c59: +1 x38 -1 x8 <= +0
 c60: +1 x39 -1 x9 <= +0
 c61: +1 x40 -1 x0 <= +0
 c62: +1 x41 -1 x1 <= +0
 c63: +1 x42 -1 x2 <= +0
 c64: +1 x43 -1 x3 <= +0
 c65: +1 x44 -1 x4 <= +0
 c66: +1 x45 -1 x5 <= +0
 c67: +1 x46 -1 x6 <= +0
 c68: +1 x47 -1 x7 <= +0
 c69: +1 x48 -1 x8 <= +0
 c70: +1 x49 -1 x9 <= +0
 c71: +1 x50 -1 x0 <= +0
 c72: +1 x51 -1 x1 <= +0
 c73: +1 x52 -1 x2 <= +0
 c74: +1 x53 -1 x3 <= +0
 c75: +1 x54 -1 x4 <= +0
 c76: +1 x55 -1 x5 <= +0
 c77: +1 x56 -1 x6 <= +0
 c78: +1 x57 -1 x7 <= +0
 c79: +1 x58 -1 x8 <= +0
 c80: +1 x59 -1 x9 <= +0
 c81: +1 x60 -1 x0 <= +0
 c82: +1 x61 -1 x1 <= +0
 c83: +1 x62 -1 x2 <= +0
 c84: +1 x63 -1 x3 <= +0
 c85: +1 x64 -1 x4 <= +0
 c86: +1 x65 -1 x5 <= +0
 c87: +1 x66 -1 x6 <= +0
 c88: +1 x67 -1 x7 <= +0
 c89: +1 x68 -1 x8 <= +0
 c90: +1 x69 -1 x9 <= +0
 c91: +1 x70 -1 x0 <= +0
 c92: +1 x71 -1 x1 <= +0
 c93: +1 x72 -1 x2 <= +0
 c94: +1 x73 -1 x3 <= +0
 c95: +1 x74 -1 x4 <= +0
 c96: +1 x75 -1 x5 <= +0
 c97: +1 x76 -1 x6 <= +0
 c98: +1 x77 -1 x7 <= +0
 c99: +1 x78 -1 x8 <= +0
 c100: +1 x79 -1 x9 <= +0
 c101: +1 x80 -1 x0 <= +0
 c102: +1 x81 -1 x1 <= +0
 c103: +1 x82 -1 x2 <= +0
 c104: +1 x83 -1 x3 <= +0
 c105: +1 x84 -1 x4 <= +0
 c106: +1 x85 -1 x5 <= +0
 c107: +1 x86 -1 x6 <= +0
 c108: +1 x87 -1 x7 <= +0
 c109: +1 x88 -1 x8 <= +0
 c110: +1 x89 -1 x9 <= +0
 c111: +1 x90 -1 x0 <= +0
 c112: +1 x91 -1 x1 <= +0
 c113: +1 x92 -1 x2 <= +0
 c114: +1 x93 -1 x3 <= +0
 c115: +1 x94 -1 x4 <= +0
 c116: +1 x95 -1 x5 <= +0
 c117: +1 x96 -1 x6 <= +0
 c118: +1 x97 -1 x7 <= +0
 c119: +1 x98 -1 x8 <= +0
 c120: +1 x99 -1 x9 <= +0
 c121: +1 x100 -1 x0 <= +0
 c122: +1 x101 -1 x1 <= +0
 c123: +1 x102 -1 x2 <= +0
 c124: +1 x103 -1 x3 <= +0
 c125: +1 x104 -1 x4 <= +0
 c126: +1 x105 -1 x5 <= +0
 c127: +1 x106 -1 x6 <= +0
 c128: +1 x107 -1 x7 <= +0
 c129: +1 x108 -1 x8 <= +0
 c130: +1 x109 -1 x9 <= +0
 c131: +1 x110 -1 x0 <= +0
 c132: +1 x111 -1 x1 <= +0
 c133: +1 x112 -1 x2 <= +0
 c134: +1 x113 -1 x3 <= +0
 c135: +1 x114 -1 x4 <= +0
 c136: +1 x115 -1 x5 <= +0
 c137: +1 x116 -1 x6 <= +0
 c138: +1 x117 -1 x7 <= +0
 c139: +1 x118 -1 x8 <= +0
 c140: +1 x119 -1 x9 <= +0
 c141: +1 x120 -1 x0 <= +0
 c142: +1 x121 -1 x1 <= +0
 c143: +1 x122 -1 x2 <= +0
 c144: +1 x123 -1 x3 <= +0
 c145: +1 x124 -1 x4 <= +0
 c146: +1 x125 -1 x5 <= +0
 c147: +1 x126 -1 x6 <= +0
 c148: +1 x127 -1 x7 <= +0
 c149: +1 x128 -1 x8 <= +0
 c150: +1 x129 -1 x9 <= +0
 c151: +1 x130 -1 x0 <= +0
 c152: +1 x131 -1 x1 <= +0
 c153: +1 x132 -1 x2 <= +0
 c154: +1 x133 -1 x3 <= +0
 c155: +1 x134 -1 x4 <= +0
 c156: +1 x135 -1 x5 <= +0
 c157: +1 x136 -1 x6 <= +0
 c158: +1 x137 -1 x7 <= +0
 c159: +1 x138 -1 x8 <= +0
 c160: +1 x139 -1 x9 <= +0
 c161: +1 x140 -1 x0 <= +0
 c162: +1 x141 -1 x1 <= +0
 c163: +1 x142 -1 x2 <= +0
 c164: +1 x143 -1 x3 <= +0
 c165: +1 x144 -1 x4 <= +0
 c166: +1 x145 -1 x5 <= +0
 c167: +1 x146 -1 x6 <= +0
 c168: +1 x147 -1 x7 <= +0
 c169: +1 x148 -1 x8 <= +0
 c170: +1 x149 -1 x9 <= +0
 c171: +1 x150 -1 x0 <= +0
 c172: +1 x151 -1 x1 <= +0
 c173: +1 x152 -1 x2 <= +0
 c174: +1 x153 -1 x3 <= +0
 c175: +1 x154 -1 x4 <= +0
 c176: +1 x155 -1 x5 <= +0
 c177: +1 x156 -1 x6 <= +0
 c178: +1 x157 -1 x7 <= +0
 c179: +1 x158 -1 x8 <= +0
 c180: +1 x159 -1 x9 <= +0
 c181: +1 x160 -1 x0 <= +0
 c182: +1 x161 -1 x1 <= +0
 c183: +1 x162 -1 x2 <= +0
 c184: +1 x163 -1 x3 <= +0
 c185: +1 x164 -1 x4 <= +0
 c186: +1 x165 -1 x5 <= +0
 c187: +1 x166 -1 x6 <= +0
 c188: +1 x167 -1 x7 <= +0
 c189: +1 x168 -1 x8 <= +0
 c190: +1 x169 -1 x9 <= +0
 c191: +1 x170 -1 x0 <= +0
 c192: +1 x171 -1 x1 <= +0
 c193: +1 x172 -1 x2 <= +0
 c194: +1 x173 -1 x3 <= +0
 c195: +1 x174 -1 x4 <= +0
 c196: +1 x175 -1 x5 <= +0
 c197: +1 x176 -1 x6 <= +0
 c198: +1 x177 -1 x7 <= +0
 c199: +1 x178 -1 x8 <= +0
 c200: +1 x179 -1 x9 <= +0
 c201: +1 x180 -1 x0 <= +0
 c202: +1 x181 -1 x1 <= +0
 c203: +1 x182 -1 x2 <= +0
 c204: +1 x183 -1 x3 <= +0
 c205: +1 x184 -1 x4 <= +0
 c206: +1 x185 -1 x5 <= +0
 c207: +1 x186 -1 x6 <= +0
 c208: +1 x187 -1 x7 <= +0
 c209: +1 x188 -1 x8 <= +0
 c210: +1 x189 -1 x9 <= +0
 c211: +1 x190 -1 x0 <= +0
 c212: +1 x191 -1 x1 <= +0
 c213: +1 x192 -1 x2 <= +0
 c214: +1 x193 -1 x3 <= +0
 c215: +1 x194 -1 x4 <= +0
 c216: +1 x195 -1 x5 <= +0
 c217: +1 x196 -1 x6 <= +0
 c218: +1 x197 -1 x7 <= +0
 c219: +1 x198 -1 x8 <= +0
 c220: +1 x199 -1 x9 <= +0
 c221: +1 x200 -1 x0 <= +0
 c222: +1 x201 -1 x1 <= +0
 c223: +1 x202 -1 x2 <= +0
 c224: +1 x203 -1 x3 <= +0
 c225: +1 x204 -1 x4 <= +0
 c226: +1 x205 -1 x5 <= +0
 c227: +1 x206 -1 x6 <= +0
 c228: +1 x207 -1 x7 <= +0
 c229: +1 x208 -1 x8 <= +0
 c230: +1 x209 -1 x9 <= +0
Bounds
 0 <= x0 <= 1
 0 <= x1 <= 1
 0 <= x2 <= 1
 0 <= x3 <= 1
 0 <= x4 <= 1
 0 <= x5 <= 1
 0 <= x6 <= 1
 0 <= x7 <= 1
 0 <= x8 <= 1
 0 <= x9 <= 1
 0 <= x10 <= 1
 0 <= x11 <= 1
 0 <= x12 <= 1
 0 <= x13 <= 1
 0 <= x14 <= 1
 0 <= x15 <= 1
 0 <= x16 <= 1
 0 <= x17 <= 1
 0 <= x18 <= 1
 0 <= x19 <= 1
 0 <= x20 <= 1
 0 <= x21 <= 1
 0 <= x22 <= 1
 0 <= x23 <= 1
 0 <= x24 <= 1
 0 <= x25 <= 1
 0 <= x26 <= 1
 0 <= x27 <= 1
 0 <= x28 <= 1
 0 <= x29 <= 1
 0 <= x30 <= 1
 0 <= x31 <= 1
 0 <= x32 <= 1
 0 <= x33 <= 1
 0 <= x34 <= 1
 0 <= x35 <= 1
 0 <= x36 <= 1
 0 <= x37 <= 1
 0 <= x38 <= 1
 0 <= x39 <= 1
 0 <= x40 <= 1
 0 <= x41 <= 1
 0 <= x42 <= 1
 0 <= x43 <= 1
 0 <= x44 <= 1
 0 <= x45 <= 1
 0 <= x46 <= 1
 0 <= x47 <= 1
 0 <= x48 <= 1
 0 <= x49 <= 1
 0 <= x50 <= 1
 0 <= x51 <= 1
 0 <= x52 <= 1
 0 <= x53 <= 1
 0 <= x54 <= 1
 0 <= x55 <= 1
 0 <= x56 <= 1
 0 <= x57 <= 1
 0 <= x58 <= 1
 0 <= x59 <= 1
 0 <= x60 <= 1
 0 <= x61 <= 1
 0 <= x62 <= 1
 0 <= x63 <= 1
 0 <= x64 <= 1
 0 <= x65 <= 1
 0 <= x66 <= 1
 0 <= x67 <= 1
 0 <= x68 <= 1
 0 <= x69 <= 1
 0 <= x70 <= 1
 0 <= x71 <= 1
 0 <= x72 <= 1
 0 <= x73 <= 1
 0 <= x74 <= 1
 0 <= x75 <= 1
 0 <= x76 <= 1
 0 <= x77 <= 1
 0 <= x78 <= 1
 0 <= x79 <= 1
 0 <= x80 <= 1
 0 <= x81 <= 1
 0 <= x82 <= 1
 0 <= x83 <= 1
 0 <= x84 <= 1
 0 <= x85 <= 1
 0 <= x86 <= 1
 0 <= x87 <= 1
 0 <= x88 <= 1
 0 <= x89 <= 1
 0 <= x90 <= 1
 0 <= x91 <= 1
 0 <= x92 <= 1
 0 <= x93 <= 1
 0 <= x94 <= 1
 0 <= x95 <= 1
 0 <= x96 <= 1
 0 <= x97 <= 1
 0 <= x98 <= 1
 0 <= x99 <= 1
 0 <= x100 <= 1
 0 <= x101 <= 1
 0 <= x102 <= 1
 0 <= x103 <= 1
 0 <= x104 <= 1
 0 <= x105 <= 1
 0 <= x106 <= 1
 0 <= x107 <= 1
 0 <= x108 <= 1
 0 <= x109 <= 1
 0 <= x110 <= 1
 0 <= x111 <= 1
 0 <= x112 <= 1
 0 <= x113 <= 1
 0 <= x114 <= 1
 0 <= x115 <= 1
 0 <= x116 <= 1
 0 <= x117 <= 1
 0 <= x118 <= 1
 0 <= x119 <= 1
 0 <= x120 <= 1
 0 <= x121 <= 1
 0 <= x122 <= 1
 0 <= x123 <= 1
 0 <= x124 <= 1
 0 <= x125 <= 1
 0 <= x126 <= 1
 0 <= x127 <= 1
 0 <= x128 <= 1
 0 <= x129 <= 1
 0 <= x130 <= 1
 0 <= x131 <= 1
 0 <= x132 <= 1
 0 <= x133 <= 1
 0 <= x134 <= 1
 0 <= x135 <= 1
 0 <= x136 <= 1
 0 <= x137 <= 1
 0 <= x138 <= 1
 0 <= x139 <= 1
 0 <= x140 <= 1
 0 <= x141 <= 1
 0 <= x142 <= 1
 0 <= x143 <= 1
 0 <= x144 <= 1
 0 <= x145 <= 1
 0 <= x146 <= 1
 0 <= x147 <= 1
 0 <= x148 <= 1
 0 <= x149 <= 1
 0 <= x150 <= 1
 0 <= x151 <= 1
 0 <= x152 <= 1
 0 <= x153 <= 1
 0 <= x154 <= 1
 0 <= x155 <= 1
 0 <= x156 <= 1
 0 <= x157 <= 1
 0 <= x158 <= 1
 0 <= x159 <= 1
 0 <= x160 <= 1
 0 <= x161 <= 1
 0 <= x162 <= 1
 0 <= x163 <= 1
 0 <= x164 <= 1
 0 <= x165 <= 1
 0 <= x166 <= 1
 0 <= x167 <= 1
 0 <= x168 <= 1
 0 <= x169 <= 1
 0 <= x170 <= 1
 0 <= x171 <= 1
 0 <= x172 <= 1
 0 <= x173 <= 1
 0 <= x174 <= 1
 0 <= x175 <= 1
 0 <= x176 <= 1
 0 <= x177 <= 1
 0 <= x178 <= 1
 0 <= x179 <= 1
 0 <= x180 <= 1
 0 <= x181 <= 1
 0 <= x182 <= 1
 0 <= x183 <= 1
 0 <= x184 <= 1
 0 <= x185 <= 1
 0 <= x186 <= 1
 0 <= x187 <= 1
 0 <= x188 <= 1
 0 <= x189 <= 1
 0 <= x190 <= 1
 0 <= x191 <= 1
 0 <= x192 <= 1
 0 <= x193 <= 1
 0 <= x194 <= 1
 0 <= x195 <= 1
 0 <= x196 <= 1
 0 <= x197 <= 1
 0 <= x198 <= 1
 0 <= x199 <= 1
 0 <= x200 <= 1
 0 <= x201 <= 1
 0 <= x202 <= 1
 0 <= x203 <= 1
 0 <= x204 <= 1
 0 <= x205 <= 1
 0 <= x206 <= 1
 0 <= x207 <= 1
 0 <= x208 <= 1
 0 <= x209 <= 1
Binaries
 x0 x1 x2 x3 x4 x5 x6 x7 x8 x9 x10 x11 x12 x13 x14 x15 x16 x17 x18 x19 x20 x21 x22 x23 x24 x25 x26 x27
 x28 x29 x30 x31 x32 x33 x34 x35 x36 x37 x38 x39 x40 x41 x42 x43 x44 x45 x46 x47 x48 x49 x50 x51 x52 x53
 x54 x55 x56 x57 x58 x59 x60 x61 x62 x63 x64 x65 x66 x67 x68 x69 x70 x71 x72 x73 x74 x75 x76 x77 x78 x79
 x80 x81 x82 x83 x84 x85 x86 x87 x88 x89 x90 x91 x92 x93 x94 x95 x96 x97 x98 x99 x100 x101 x102 x103 x104
 x105 x106 x107 x108 x109 x110 x111 x112 x113 x114 x115 x116 x117 x118 x119 x120 x121 x122 x123 x124 x125
 x126 x127 x128 x129 x130 x131 x132 x133 x134 x135 x136 x137 x138 x139 x140 x141 x142 x143 x144 x145 x146
 x147 x148 x149 x150 x151 x152 x153 x154 x155 x156 x157 x158 x159 x160 x161 x162 x163 x164 x165 x166 x167
 x168 x169 x170 x171 x172 x173 x174 x175 x176 x177 x178 x179 x180 x181 x182 x183 x184 x185 x186 x187 x188
 x189 x190 x191 x192 x193 x194 x195 x196 x197 x198 x199 x200 x201 x202 x203 x204 x205 x206 x207 x208 x209
End
